Instance name: /mnt/c/Users/ORG/CLionProjects/uMV-FSTSP/Murray_Chu_2015_test_data/FSTSP/FSTSP_10_customer_problems/20140810T123437v8

drone speed: 0.4 miles/minute
uav non-eligible customer: 10 
Printing number of nodes: 11

Set parameter Threads to value 20
Gurobi Optimizer version 11.0.0 build v11.0.0rc2 (linux64 - "Ubuntu 22.04.3 LTS")

CPU model: 13th Gen Intel(R) Core(TM) i5-13500, instruction set [SSE2|AVX|AVX2]
Thread count: 10 physical cores, 20 logical processors, using up to 20 threads

Optimize a model with 6191 rows, 1825 columns and 197592 nonzeros
Model fingerprint: 0x3cc850b7
Variable types: 11 continuous, 1814 integer (1814 binary)
Coefficient statistics:
  Matrix range     [6e-01, 2e+01]
  Objective range  [8e-01, 2e+01]
  Bounds range     [1e+00, 1e+00]
  RHS range        [1e+00, 8e+00]
Found heuristic solution: objective 137.6454206
Presolve removed 495 rows and 831 columns
Presolve time: 0.35s
Presolved: 5696 rows, 994 columns, 163879 nonzeros
Variable types: 9 continuous, 985 integer (985 binary)

Root relaxation: objective 5.346169e+01, 3228 iterations, 0.23 seconds (0.66 work units)

    Nodes    |    Current Node    |     Objective Bounds      |     Work
 Expl Unexpl |  Obj  Depth IntInf | Incumbent    BestBd   Gap | It/Node Time

     0     0   53.46169    0  162  137.64542   53.46169  61.2%     -    0s
H    0     0                      87.1316004   53.46169  38.6%     -    0s
H    0     0                      85.8136922   53.46169  37.7%     -    0s
H    0     0                      80.9638577   53.46169  34.0%     -    0s
     0     0   55.13676    0  177   80.96386   55.13676  31.9%     -    1s
H    0     0                      77.2053042   55.19508  28.5%     -    1s
     0     0   55.36800    0  180   77.20530   55.36800  28.3%     -    1s
H    0     0                      75.3423514   55.49366  26.3%     -    1s
H    0     0                      67.8283778   56.27129  17.0%     -    1s
     0     0   56.27129    0  197   67.82838   56.27129  17.0%     -    1s
     0     0   56.81824    0  200   67.82838   56.81824  16.2%     -    1s
     0     0   56.81824    0  197   67.82838   56.81824  16.2%     -    1s
     0     0   56.87267    0  195   67.82838   56.87267  16.2%     -    1s
H    0     0                      66.6948608   56.89902  14.7%     -    1s
     0     0   56.89902    0  206   66.69486   56.89902  14.7%     -    1s
     0     0   57.30672    0  207   66.69486   57.30672  14.1%     -    1s
H    0     0                      62.8040192   57.77499  8.01%     -    1s
     0     0   57.77499    0  220   62.80402   57.77499  8.01%     -    1s
     0     0   57.89493    0  213   62.80402   57.89493  7.82%     -    2s
     0     0   57.94105    0  231   62.80402   57.94105  7.74%     -    2s
     0     0   57.94105    0  231   62.80402   57.94105  7.74%     -    2s
     0     2   57.94105    0  231   62.80402   57.94105  7.74%     -    2s
H   48    18                      62.3813003   57.94105  7.12%   144    4s
    71    13   61.20974    8   78   62.38130   57.94105  7.12%   119    5s

Cutting planes:
  Gomory: 4
  Cover: 3
  Clique: 42
  MIR: 8
  StrongCG: 2
  GUB cover: 1
  Zero half: 34
  RLT: 8

Explored 160 nodes (18379 simplex iterations) in 6.14 seconds (10.57 work units)
Thread count was 20 (of 20 available processors)

Solution count 10: 62.3813 62.804 66.6949 ... 137.645

Optimal solution found (tolerance 1.00e-04)
Best objective 6.238130032087e+01, best bound 6.238130032087e+01, gap 0.0000%
